NAME : portcgen-16-22
COMMENT : portcgen N=16, seed=22
TYPE : TSP
DIMENSION : 16
EDGE_WEIGHT_TYPE : EUC_2D
NODE_COORD_SECTION
1 22610 -192118
2 -183490 -27402
3 85751 436117
4 -54515 -87747
5 13698 402088
6 -174665 57219
7 162487 -202240
8 148482 -128951
9 -132670 515972
10 398603 20228
11 -188435 411332
12 -75201 -269544
13 406776 204323
14 -267200 -134679
15 159613 145327
16 146295 37194
